c ---- [ banner ] ------------------------------------------------------------
c
c Kissat SAT Solver
c 
c Copyright (c) 2021-2023 Armin Biere University of Freiburg
c Copyright (c) 2019-2021 Armin Biere Johannes Kepler University Linz
c 
c Version 3.1.1 unknown
c gcc (Ubuntu 9.4.0-1ubuntu1~20.04.2) 9.4.0 -W -Wall -O3 -DNDEBUG
c Mon Feb 26 18:18:52 CET 2024 Linux OptiPlex-7080 5.15.0-88-generic x86_64
c
c ---- [ parsing ] -----------------------------------------------------------
c
c opened and reading DIMACS file:
c
c   /home/oliveras/SAT-comp-2023//1a63072b90f88c7fa621b5041f412b79-asconhashv12_opt64_H8_M2-nm2vUdkK_m3_5_U3.c.cnf
c
c parsed 'p cnf 158612 373236' header
c closing input after reading 7866956 bytes (8 MB)
c finished parsing after 0.12 seconds
c
c ---- [ options ] -----------------------------------------------------------
c
c --seed=1                         (different from default '0')
c
c ---- [ solving ] -----------------------------------------------------------
c
c  seconds switched conflicts    irredundant  variables
c         MB reductions redundant        trail     remaining
c          level restarts    binary         glue
c
c *  0.12 32 0 0 0  0   0   0 39648 332873 0% 0 97008 61%
c {  0.12 32 0 0 0  0   0   0 39648 332873 0% 0 97008 61%
c i  0.12 32 5 0 0  0   1   0 39648 332873 0% 0 96998 61%
c -  0.15 33 631 0 1  7 1000 377 37495 332873 3% 17 96998 61%
c }  0.15 33 631 1 1  7 1000 377 37495 332873 3% 17 96998 61%
c [  0.15 33 0 1 1  7 1000 377 37495 332873 0% 0 96998 61%
c B  0.15 33 322 1 1  7 1001 378 37495 332873 3% 11 96998 61%
c i  0.16 34 224 1 1  7 1551 834 37496 332873 1% 35 96996 61%
c -  0.18 34 252 1 2  7 2000 542 37502 332873 1% 30 96996 61%
c W  0.24 37 252 1 2  7 2003 545 37502 331721 1% 30 96996 61%
c ]  0.25 37 271 2 2  8 2326 748 37506 331721 2% 27 96996 61%
c {  0.25 37 631 2 2  8 2326 748 37506 331721 3% 17 96996 61%
c i  0.25 37 631 2 2  8 2327 748 37506 331721 3% 17 96995 61%
c i  0.25 37 631 2 2  8 2328 748 37506 331721 3% 17 96994 61%
c i  0.26 37 654 2 2  8 2431 819 37519 331720 3% 16 96993 61%
c i  0.27 37 652 2 2  8 2447 833 37519 331720 3% 16 96992 61%
c i  0.28 37 639 2 2  8 2554 919 37528 331720 3% 15 96991 61%
c i  0.49 39 571 2 2  8 3080 1424 37531 331720 4% 13 96990 61%
c d  0.51 41 569 2 2  8 3103 1443 38408 330764 4% 12 96959 61%
c u  0.53 41 569 2 2  8 3103 1433 38418 330764 4% 12 96959 61%
c
c  seconds   switched conflicts      irredundant   variables
c         MB  reductions  redundant          trail      remaining
c           level restarts       binary          glue
c
c v  0.56 41 569 2 2  8 3103 1433 38418 330764 4% 12 96959 61%
c w  0.64 43 569 2 2  8 3103 1464 38511 330596 4% 12 96940 61%
c =  0.68 45 569 2 2  8 3103 1464 39720 329926 4% 12 96356 61%
c d  0.70 45 569 2 2  8 3103 1310 38009 329886 4% 12 96160 61%
c t  0.71 45 569 2 2  8 3103 1310 37961 329886 4% 12 96160 61%
c i  0.71 45 569 2 2  8 3103 1310 37961 329886 4% 12 96160 61%
c }  0.74 45 589 3 2  8 3326 1503 37978 329885 4% 12 96160 61%
c [  0.74 45 271 3 2  8 3326 1503 37978 329885 2% 27 96160 61%
c -  0.75 45 294 3 3  8 3415 827 37434 329885 2% 25 96160 61%
c I  0.79 45 405 3 3  8 4262 1594 37468 329884 3% 25 96160 61%
c -  0.83 45 373 3 4  9 5147 1635 37486 329884 3% 21 96160 61%
c d  0.91 45 351 3 4 10 6200 2585 37473 329884 3% 24 96149 61%
c u  0.93 45 351 3 4 10 6200 2564 37494 329884 3% 24 96149 61%
c v  0.95 45 351 3 4 10 6200 2564 37494 329884 3% 24 96149 61%
c w  1.03 45 351 3 4 10 6200 2615 37622 329705 3% 24 96149 61%
c =  1.07 45 351 3 4 10 6200 2615 37628 329705 3% 24 96146 61%
c d  1.09 45 351 3 4 10 6200 2615 37622 329705 3% 24 96146 61%
c t  1.10 45 351 3 4 10 6200 2615 37559 329705 3% 24 96146 61%
c -  1.14 45 347 3 5 10 7148 2268 37564 329705 3% 23 96146 61%
c B  1.16 45 368 3 5 10 8034 2934 37564 329705 4% 24 96146 61%
c
c  seconds   switched conflicts      irredundant   variables
c         MB  reductions  redundant          trail      remaining
c           level restarts       binary          glue
c
c ]  1.27 45 366 4 5 11 8934 3767 37577 329705 4% 26 96146 61%
c {  1.27 45 589 4 5 11 8934 3767 37577 329705 4% 12 96146 61%
c -  2.49 45 581 4 6 16 9385 2481 37581 329705 7% 11 96146 61%
c } 12.69 45 314 5 6 16 11286 4366 37581 329705 19% 10 96146 61%
c [ 12.69 45 366 5 6 16 11286 4366 37581 329705 4% 26 96146 61%
c - 12.73 45 366 5 7 16 11834 2774 37596 329705 4% 26 96146 61%
c u 12.83 45 363 5 7 17 12641 3497 37609 329705 4% 26 96146 61%
c v 12.88 45 363 5 7 17 12641 3494 37612 329705 4% 26 96146 61%
c w 13.06 45 363 5 7 17 12641 3865 37850 329096 4% 26 96146 61%
c = 13.29 46 363 5 7 17 12641 3865 37852 329096 4% 26 96145 61%
c d 13.30 46 363 5 7 17 12641 3865 37850 329096 4% 26 96145 61%
c t 13.33 46 363 5 7 17 12641 3865 37792 329096 4% 26 96145 61%
c W 13.61 47 353 5 7 17 13564 4666 37801 329096 4% 24 96145 61%
c - 13.65 47 349 5 8 18 14479 4059 37825 329096 4% 23 96145 61%
c s 13.73 47 349 5 8 18 15518 4843 38424 328492 4% 22 96145 61%
c e 14.09 57 349 5 8 18 15518 4843 248 343336 4% 22 57964 37%
c s 14.16 58 349 5 8 18 15518 4843 264 342581 4% 22 57964 37%
c e 14.18 58 349 5 8 18 15518 4843 261 342577 4% 22 57952 37%
c ^ 14.18 58 349 5 8 18 15518 4843 261 342577 4% 22 57952 37%
c - 14.34 51 347 5 9 20 17308 2402 261 342576 4% 30 57952 37%
c
c  seconds   switched  conflicts     irredundant   variables
c         MB   reductions   redundant        trail      remaining
c           level  restarts       binary         glue
c
c - 14.41 51 335 5 10 21 20309 3260 264 342575 4% 28 57952 37%
c O 14.43 51 334 5 10 22 21094 3829 264 342575 4% 27 57952 37%
c u 14.63 51 335 5 10 22 22642 5281 277 342575 4% 30 57952 37%
c v 14.65 51 335 5 10 22 22642 5281 277 342575 4% 30 57952 37%
c w 14.75 51 335 5 10 22 22642 5332 281 342520 4% 30 57952 37%
c = 14.79 51 335 5 10 22 22642 5332 297 342518 4% 30 57944 37%
c d 14.81 51 335 5 10 22 22642 5332 280 342518 4% 30 57944 37%
c t 14.82 51 335 5 10 22 22642 5332 261 342518 4% 30 57944 37%
c - 14.89 51 336 5 11 22 23471 3703 261 342518 4% 34 57944 37%
c - 15.16 51 337 5 12 24 26787 3909 261 342518 4% 44 57944 37%
c - 15.45 51 337 5 13 26 30251 4192 263 342518 4% 52 57944 37%
c s 15.51 51 336 5 13 26 30836 4748 263 342409 4% 53 57944 37%
c e 15.74 51 336 5 13 26 30836 4748  89 342655 4% 53 57854 36%
c s 15.75 51 336 5 13 26 30836 4748  91 342637 4% 53 57854 36%
c ^ 15.76 51 336 5 13 26 30836 4748  91 342637 4% 53 57854 36%
c B 15.77 51 336 5 13 26 30855 4384  91 342637 4% 53 57854 36%
c - 15.96 51 334 5 14 28 33857 4593  91 342637 4% 54 57854 36%
c u 16.13 51 331 5 14 29 36279 6803  92 342637 3% 54 57854 36%
c v 16.15 51 331 5 14 29 36279 6803  92 342637 3% 54 57854 36%
c w 16.26 52 331 5 14 29 36279 7104  94 342334 3% 54 57854 36%
c
c  seconds   switched  conflicts     irredundant   variables
c         MB   reductions   redundant        trail      remaining
c           level  restarts       binary         glue
c
c t 16.36 52 331 5 14 29 36279 7104  91 342334 3% 54 57854 36%
c - 16.41 52 328 5 15 29 37598 5476  91 342334 3% 53 57854 36%
c - 16.60 52 347 5 16 30 41471 6113  94 342334 4% 49 57854 36%
c W 16.80 53 360 5 16 30 43077 7675  94 342334 4% 47 57854 36%
c - 23.69 56 334 5 17 30 45471 6484  95 342334 5% 45 57854 36%
c ] 26.13 56 328 6 17 30 46115 7124  95 342334 6% 44 57854 36%
c { 26.13 56 314 6 17 30 46115 7124  95 342334 19% 10 57854 36%
c - 38.59 56 230 6 18 66 49595 6724  96 342334 23% 9 57854 36%
c } 39.56 56 261 7 18 123 50184 7269  97 342334 22% 9 57854 36%
c [ 39.56 56 328 7 18 123 50184 7269  97 342334 6% 44 57854 36%
c ] 52.12 58 298 8 18 125 53456 10518  97 342334 8% 41 57854 36%
c { 52.12 58 261 8 18 125 53456 10518  97 342334 22% 9 57854 36%
c u 53.87 58 249 8 18 137 53830 10888  99 342334 22% 9 57854 36%
c v 54.08 58 249 8 18 137 53830 10887 100 342334 22% 9 57854 36%
c w 54.33 58 249 8 18 137 53830 10954 102 342265 22% 9 57854 36%
c = 54.65 58 249 8 18 137 53830 10954 930 340906 22% 9 57379 36%
c d 54.67 58 249 8 18 137 53830 10954 366 340729 22% 9 57379 36%
c d 54.68 58 249 8 18 137 53830 10954 364 340729 22% 9 57378 36%
c t 54.70 58 249 8 18 137 53830 10954 358 340729 22% 9 57378 36%
c - 54.74 58 249 8 19 138 53837 6881  96 340729 23% 9 57378 36%
c
c  seconds   switched   conflicts     irredundant   variables
c         MB   reductions    redundant         trail     remaining
c           level  restarts        binary         glue
c
c - 72.41 58 214 8 20 986 58195 7005 104 340722 25% 9 57378 36%
c } 78.82 58 192 9 20 986 59616 8415 106 340720 26% 9 57378 36%
c [ 78.82 58 298 9 20 986 59616 8415 106 340720 8% 41 57378 36%
c I 78.82 58 298 9 20 986 59616 8415 106 340720 8% 41 57378 36%
c - 91.82 58 274 9 21 988 62669 7322 109 340717 10% 38 57378 36%
c s 97.81 58 265 9 21 989 64045 8689 128 339944 11% 37 57378 36%
c e 98.26 50 265 9 21 989 64045 8689 126 356330 11% 37 49069 31%
c s 98.34 50 265 9 21 989 64045 8689 127 355928 11% 37 49069 31%
c ^ 98.38 50 265 9 21 989 64045 8689 127 355928 11% 37 49069 31%
c ] 103.19 53 257 10 21 990 65270 7422 127 355928 12% 36 49069 31%
c { 103.19 53 192 10 21 990 65270 7422 127 355928 26% 9 49069 31%
c - 111.79 53 171 10 22 1049 67252 5745 135 355920 27% 9 49069 31%
c - 131.82 56 172 10 23 1325 71942 6311 141 355915 28% 9 49069 31%
c } 137.53 56 192 11 23 1483 73897 8212 143 355915 28% 9 49069 31%
c [ 137.53 56 257 11 23 1483 73897 8212 143 355915 12% 36 49069 31%
c u 143.94 56 247 11 23 1484 75413 9722 144 355914 12% 35 49069 31%
c v 144.19 56 247 11 23 1484 75413 9722 144 355914 12% 35 49069 31%
c w 144.50 58 247 11 23 1484 75413 12404 160 353216 12% 35 49069 31%
c = 144.59 58 247 11 23 1484 75413 12404 186 353216 12% 35 49056 31%
c d 144.61 58 247 11 23 1484 75413 12404 160 353216 12% 35 49056 31%
c
c  seconds     switched    conflicts      irredundant    variables
c          MB    reductions      redundant         trail      remaining
c            level    restarts         binary          glue
c
c t 144.64 58 247 11 23 1484 75413 12404 157 353216 12% 35 49056 31%
c - 150.77 58 239 11 24 1485 76737 9569 158 353215 13% 34 49056 31%
c B 153.75 58 235 11 24 1485 77419 10247 158 353215 14% 34 49056 31%
c ] 170.93 58 216 12 24 1488 81263 14074 159 353214 15% 31 49056 31%
c { 170.93 58 192 12 24 1488 81263 14074 159 353214 28% 9 49056 31%
c - 172.30 58 189 12 25 1549 81635 9621 159 353214 28% 9 49056 31%
c - 185.56 58 210 12 26 1853 86636 10295 167 353210 26% 9 49056 31%
c - 209.63 58 175 12 27 1853 91735 11093 169 353209 28% 9 49056 31%
c } 212.19 58 179 13 27 1942 92742 12032 169 353209 28% 9 49056 31%
c [ 212.19 58 216 13 27 1942 92742 12032 169 353209 15% 31 49056 31%
c - 230.17 58 197 13 28 1945 96932 11558 170 353209 17% 29 49056 31%
c W 238.05 59 191 13 28 1946 98331 12950 170 353209 18% 29 49056 31%
c u 251.13 59 180 13 28 1948 101332 15939 172 353208 19% 27 49056 31%
c v 251.39 59 180 13 28 1948 101332 15939 172 353208 19% 27 49056 31%
c w 251.70 59 180 13 28 1948 101332 16083 194 353042 19% 27 49056 31%
c t 251.80 59 180 13 28 1948 101332 16083 178 353042 19% 27 49056 31%
c ] 253.01 59 179 14 28 1948 101591 16342 178 353042 19% 27 49056 31%
c { 253.01 59 179 14 28 1948 101591 16342 178 353042 28% 9 49056 31%
c - 255.89 59 176 14 29 2023 102223 12275 178 353042 28% 9 49056 31%
c - 268.92 61 194 14 30 2249 107610 13337 183 353040 27% 9 49056 31%
c
c  seconds     switched    conflicts       irredundant   variables
c          MB    reductions       redundant         trail     remaining
c            level    restarts          binary         glue
c
c - 292.37 61 177 14 31 2275 113088 14795 184 353039 27% 9 49056 31%
c } 307.45 61 164 15 31 2275 116307 18000 185 353039 28% 8 49056 31%
c [ 307.45 61 179 15 31 2275 116307 18000 185 353039 19% 27 49056 31%
c s 314.20 61 173 15 31 2276 117857 19542 191 353017 19% 27 49056 31%
c e 314.73 51 173 15 31 2276 117857 19542 181 382997 19% 27 41319 26%
c s 314.80 51 173 15 31 2276 117857 19542 181 382266 19% 27 41319 26%
c ^ 314.84 51 173 15 31 2276 117857 19542 181 382266 19% 27 41319 26%
c - 318.66 57 171 15 32 2277 118657 13209 181 382266 20% 26 41319 26%
c O 336.37 57 158 15 32 2280 122557 17069 181 382266 21% 25 41319 26%
c - 343.32 57 153 15 33 2280 124313 13794 181 382266 21% 24 41319 26%
c ] 360.13 57 143 16 33 2281 128122 17571 182 382266 22% 23 41319 26%
c { 360.13 57 164 16 33 2281 128122 17571 182 382266 28% 8 41319 26%
c - 368.68 57 157 16 34 2281 130057 14565 183 382266 28% 8 41319 26%
c i 373.39 57 153 16 34 2281 131037 15530 196 382266 28% 8 41318 26%
c b 375.04 59 154 16 34 2291 131621 13037 208 382227 28% 8 41317 26%
c u 375.18 59 154 16 34 2291 131621 12909 332 382227 28% 8 41317 26%
c v 375.50 59 154 16 34 2291 131621 12539 625 382227 28% 8 41317 26%
c w 375.85 61 154 16 34 2291 131621 13494 656 381221 28% 8 41317 26%
c = 376.10 61 154 16 34 2291 131621 13494 684 381206 28% 8 41303 26%
c d 376.12 61 154 16 34 2291 131621 13480 431 381206 28% 8 41303 26%
c
c  seconds     switched    conflicts       irredundant   variables
c          MB    reductions       redundant         trail     remaining
c            level    restarts          binary         glue
c
c t 376.15 61 154 16 34 2291 131621 13480 202 381206 28% 8 41303 26%
c i 383.77 61 148 16 34 2291 133238 15081 211 381206 29% 8 41298 26%
c i 394.54 61 143 16 34 2303 135605 17417 225 381206 29% 8 41297 26%
c - 394.60 61 145 16 35 2303 135889 10973 190 381206 29% 8 41297 26%
c i 399.63 61 142 16 35 2316 137389 12437 200 381206 29% 8 41292 26%
c i 403.37 61 139 16 35 2317 141683 16559 212 381205 27% 8 41291 26%
c - 403.39 61 141 16 36 2317 141806 11660 1498 381205 27% 8 41291 26%
c i 404.47 61 140 16 36 2321 142426 12263 1506 381204 26% 8 41286 26%
c i 405.08 61 140 16 36 2321 142650 12477 1514 381204 26% 8 41285 26%
c i 405.92 61 137 16 36 2321 143908 13679 1523 381204 26% 8 41284 26%
c i 406.57 61 136 16 36 2321 144998 14689 1533 381203 25% 8 41283 26%
c i 407.09 61 135 16 36 2321 145682 15328 1539 381203 25% 8 41282 26%
c i 407.16 61 134 16 36 2321 145734 15373 1545 381203 25% 8 41248 26%
c i 407.21 61 134 16 36 2321 145782 15416 1549 381203 25% 8 41229 26%
c i 407.24 61 134 16 36 2321 145793 15423 1552 381203 25% 8 41207 26%
c i 407.25 61 134 16 36 2321 145814 15436 1555 381203 25% 8 41206 26%
c i 407.26 61 134 16 36 2321 145819 15437 1558 381203 25% 8 41132 26%
c } 407.26 61 134 16 36 2321 145821 15437 1558 381203 25% 8 35284 22%
c 0 407.26 61 134 16 36 2321 145821 15437 1558 381203 25% 8 35284 22%
c
c ---- [ result ] ------------------------------------------------------------
c
s UNSATISFIABLE
c
c ---- [ profiling ] ---------------------------------------------------------
c
c         397.98   97.72 %  search
c         226.97   55.73 %  focused
c         171.01   41.99 %  stable
c           9.16    2.25 %  simplify
c           5.08    1.25 %  probe
c           3.31    0.81 %  vivify
c           2.06    0.51 %  walking
c           2.02    0.50 %  eliminate
c           1.15    0.28 %  sweep
c           0.47    0.12 %  substitute
c           0.30    0.07 %  reduce
c           0.29    0.07 %  subsume
c           0.12    0.03 %  parse
c           0.10    0.02 %  transitive
c           0.05    0.01 %  backbone
c           0.03    0.01 %  warmup
c =============================================
c         407.26  100.00 %  total
c
c ---- [ statistics ] --------------------------------------------------------
c
c chronological:                         1085                1 %  conflicts
c conflicts:                           145821              358.05 per second
c decisions:                           523548                3.59 per conflict
c eliminated:                           54329               34 %  variables
c jumped_reasons:                      116869                0 %  propagations
c propagations:                    1458470197          3581177    per second
c queue_decisions:                      97960               19 %  decision
c random_decisions:                    258344               49 %  decision
c random_sequences:                        46             3170    interval
c reductions:                              36             4051    interval
c rephased:                                12            12152    interval
c restarts:                              2321               62.83 interval
c score_decisions:                     167244               32 %  decision
c strengthened:                         12945                0 %  checks
c substituted:                            996                1 %  variables
c subsumed:                              2788                0 %  checks
c switched:                                16             9114    interval
c vivified:                             17418                1 %  checks
c vivify_checks:                      1918103           213123    per vivify
c vivify_units:                            19                0 %  variables
c walk_improved:                            4              100 %  walks
c walks:                                    4            36455    interval
c
c ---- [ resources ] ---------------------------------------------------------
c
c maximum-resident-set-size:         64159744 bytes         61 MB
c process-time:                         6m 47s             407.26 seconds
c
c ---- [ shutting down ] -----------------------------------------------------
c
c exit 20
